1,22815,22743,32920,40834,35015,21835,13643,43318,31482,8769,3948,17901,2019,49848,37644,45312,42339,1648,28835,18074,5963,38098,5148,35004,38980,40126,47932,14788,8394,37510,46853,24145,37405,22105,21567,17666,40835,40346,20730,12872,18543,29424,34148,20249,33146,48980,3763,39835,12884,34858,31420,36184,29945,11997,32788,41165,44538,40385,30464,36404,47927,7082,31000,22258,8124,10679,3212,29160,30128,2769,22386,42079,39953,11630,34465,10245,40002,20899,39863,43209,
2,1648,1648,2019,2769,1648,2019,1648,1648,399,5304,1851,5471,2197,1198,757,3024,4271,2080,2836,843,1795,1568,1661,1675,1851,7072,474,8018,3256,5210,2628,2079,1237,1655,2917,1253,568,3007,1556,1633,1683,2784,1162,1336,3158,467,547,2552,849,2000,6507,668,2881,782,3792,4965,4473,3717,367,2363,4010,3793,4499,2279,3084,2240,2588,860,2165,5031,304,419,31561,8469,23118,24872,2845,9912,10542,4910,
3,304,367,304,399,304,367,367,304,1970,577,420,972,925,471,4790,1721,471,268,450,1095,651,995,4200,1965,419,1176,467,995,894,1237,769,693,972,782,1328,304,909,1237,1851,1498,668,1755,419,1390,835,399,921,668,905,1661,629,1648,304,1648,2255,148,471,467,1150,992,478,1036,1072,467,478,8710,2426,148,2474,380,599,860,12027,3491,608,2156,17693,9255,21409,2759,
4,148,148,148,268,148,304,304,304,744,1876,148,304,304,380,1966,399,304,478,148,148,2564,304,651,1307,471,304,304,399,1307,304,1659,148,387,681,1247,367,739,668,1145,304,367,399,148,478,467,739,304,701,304,148,247,1812,1454,1307,3136,906,304,304,1307,423,739,304,1454,304,304,304,471,1960,148,1454,1659,304,44226,15211,12307,7906,2140,44709,148,35810,
5,148,148,148,148,148,148,148,148,304,148,4995,304,304,148,304,156,304,148,304,304,148,304,304,304,148,1129,304,304,148,148,148,304,304,861,4995,304,148,304,148,148,148,304,148,148,148,304,304,148,304,148,148,304,148,148,2091,148,148,304,304,304,247,148,148,471,304,148,304,5358,304,304,304,148,304,27129,6150,6672,35346,4603,47176,6246,
6,148,148,148,148,148,148,148,148,148,156,148,148,148,148,148,18139,148,148,148,148,148,6622,1170,148,148,148,247,304,148,148,148,148,156,304,148,304,304,148,148,148,304,148,148,148,148,23079,148,148,304,148,6622,148,247,148,148,148,148,148,148,148,148,6622,148,148,148,148,156,148,148,148,148,18139,35393,46302,32336,5961,22687,148,148,148,
7,148,148,148,148,148,148,148,148,148,148,148,148,148,148,148,148,148,148,148,148,148,148,148,148,148,148,148,247,148,148,148,148,148,148,148,148,148,148,148,148,148,148,148,148,148,148,148,148,148,148,148,148,148,148,148,148,148,148,148,148,148,148,148,148,148,148,5921,5921,148,148,148,148,148,23399,16189,28853,148,30374,148,10020,
8,148,148,148,148,148,148,148,148,148,148,148,148,148,148,148,148,148,148,148,148,148,148,148,148,148,148,148,148,148,148,148,148,148,148,148,148,148,148,148,148,148,148,148,148,148,148,148,148,148,148,148,148,148,148,148,148,148,148,148,148,148,148,148,148,148,148,148,148,148,148,148,148,31056,148,8593,34854,41228,35511,44925,39536,
9,148,148,148,148,148,148,148,148,148,148,148,148,148,148,148,148,148,148,148,148,148,148,148,148,148,148,148,148,148,148,148,148,148,148,148,148,148,148,148,148,148,148,148,148,148,148,148,148,148,148,148,148,148,148,148,148,148,148,148,148,148,148,148,148,148,148,148,148,148,148,148,148,23261,18017,17104,39988,148,148,772,37593,
10,148,148,148,148,148,148,148,148,148,148,148,148,148,148,148,18380,148,148,148,148,148,148,148,148,148,148,148,148,148,4061,148,148,148,148,148,148,148,148,148,148,148,148,148,148,11469,148,148,148,148,148,148,148,148,148,148,148,148,148,148,148,9572,148,148,148,148,148,148,148,148,148,148,148,10542,29539,32764,32686,148,10404,148,148,
11,148,148,148,148,148,148,148,148,148,148,148,148,148,148,148,148,148,148,148,148,148,148,148,148,148,148,148,148,148,148,148,148,148,148,148,148,148,148,148,148,148,148,148,148,148,148,148,148,148,148,148,148,148,148,148,148,148,148,148,148,148,148,148,148,148,148,148,148,148,148,148,148,7188,15708,32004,39035,34368,148,34410,24063,
12,148,148,148,148,148,148,148,148,148,148,148,148,148,148,148,148,148,148,148,148,148,148,148,148,148,148,148,148,148,148,148,148,148,12343,148,148,148,148,148,148,148,148,148,148,148,148,148,148,148,148,148,148,148,148,148,148,148,148,148,148,148,148,148,148,148,148,148,148,148,148,148,148,2617,1444,18335,31972,148,4898,30514,24523,
13,148,148,148,148,148,148,148,148,148,148,148,148,148,148,148,148,148,148,148,148,148,148,148,148,148,148,148,148,148,148,148,148,148,148,148,148,148,148,148,148,148,148,148,148,148,148,148,148,148,148,148,148,148,148,148,148,148,148,148,148,148,148,148,148,148,148,148,148,148,148,148,148,5650,148,12355,148,10683,23789,35219,10043,
14,148,148,148,148,148,148,148,148,148,148,148,148,148,148,148,148,148,148,148,148,148,148,148,148,148,148,148,148,148,148,148,148,148,148,148,148,148,148,148,148,148,148,148,148,148,148,148,148,148,148,148,148,148,148,148,148,148,148,148,148,148,148,148,148,148,148,148,148,148,148,148,148,29408,20499,148,15399,28647,26058,20298,148,
15,148,148,148,148,148,148,148,148,148,148,148,148,148,148,148,148,148,148,148,148,148,148,148,148,148,148,148,148,148,148,148,148,148,148,148,148,148,148,148,148,148,148,148,148,148,148,148,148,148,148,148,148,148,148,148,148,148,148,148,148,148,148,148,148,148,148,148,148,148,148,148,148,15733,148,148,26279,148,34051,24383,148,
16,148,148,148,148,148,148,148,148,148,148,148,148,148,148,148,148,148,148,148,148,148,148,148,148,148,148,148,148,148,148,148,148,148,148,148,148,148,148,148,148,148,148,148,148,148,148,148,148,148,148,148,148,148,148,148,148,148,148,148,148,148,148,148,148,148,148,148,148,148,148,148,148,148,43185,148,55301,39996,148,148,21415,
17,148,148,148,148,148,148,148,148,148,148,148,148,148,148,148,148,148,148,148,148,148,148,148,148,148,148,148,148,148,148,148,148,148,148,148,148,148,148,148,148,148,148,148,148,148,148,148,148,148,148,148,148,148,148,148,15052,148,148,148,148,148,148,148,148,148,148,148,148,148,148,148,148,47626,3931,12072,148,21870,15188,22477,148,
18,148,148,148,148,148,148,148,148,148,148,148,148,148,148,148,148,148,148,148,148,148,148,148,148,148,148,148,148,148,148,148,6606,148,148,148,148,148,148,148,148,148,148,148,148,148,148,148,148,148,148,148,148,148,148,148,148,148,148,148,148,148,148,148,148,148,148,148,148,148,148,148,148,30570,148,4880,36772,148,21126,20058,148,
19,148,148,148,148,148,148,148,148,148,148,148,148,148,148,148,148,148,148,148,148,148,148,148,148,148,148,148,148,7506,148,148,148,148,148,148,148,148,148,148,148,148,148,148,148,148,148,148,148,148,148,148,148,148,148,148,148,148,148,148,148,148,148,148,148,148,148,148,148,148,148,148,148,23042,148,23167,21459,37636,4554,39429,42555,
20,148,148,148,148,148,148,148,148,148,148,148,148,148,148,148,148,148,148,148,148,148,148,148,148,148,148,148,148,148,148,148,148,148,148,148,148,148,148,148,148,148,148,148,148,148,148,148,148,148,148,148,148,148,148,148,148,148,148,148,148,148,148,148,148,148,148,148,148,148,148,148,148,148,32234,43713,5587,11362,27477,148,42290,
21,148,148,148,148,148,148,148,148,148,148,148,148,148,148,148,148,148,148,148,148,148,148,148,148,148,148,148,148,148,148,148,148,148,148,148,148,148,148,148,148,148,148,148,148,148,148,148,148,148,148,148,148,148,148,148,148,148,148,148,148,148,148,148,148,19352,19352,148,148,148,148,148,148,24854,4188,148,38943,148,8492,27216,16930,
22,148,148,148,148,148,148,148,148,148,148,148,148,148,148,148,148,148,148,148,148,148,148,148,148,148,148,148,148,148,148,148,148,148,148,148,148,148,148,148,148,148,148,148,148,148,148,148,148,148,148,148,148,148,148,148,148,148,148,148,148,148,148,148,148,148,148,148,148,148,148,148,148,11399,148,36046,10185,6318,35659,148,27791,
23,148,148,148,148,148,148,148,148,148,148,148,148,148,148,148,148,148,148,148,148,148,148,148,148,148,148,148,148,148,148,148,148,148,148,148,148,148,148,148,148,148,148,148,148,148,148,1245,148,148,148,148,148,148,148,148,148,148,148,148,148,148,148,148,148,148,148,148,148,148,148,148,148,28135,148,26126,22514,14290,26429,1622,6547,
24,148,148,148,148,148,148,148,148,148,148,148,148,148,148,148,148,148,148,148,148,551,148,148,148,551,148,148,148,148,148,148,148,148,148,148,148,148,148,148,148,148,11933,148,148,148,148,148,148,148,148,148,148,148,148,148,148,148,148,148,148,148,148,148,148,148,148,148,148,1622,148,148,148,148,17863,17840,148,34475,45470,148,303,
25,148,148,148,148,148,148,148,148,148,148,148,8527,148,148,148,148,148,148,148,148,148,148,148,148,148,148,148,148,148,148,148,148,148,148,148,148,148,148,148,148,148,148,148,148,148,148,148,148,148,148,148,148,148,148,148,148,148,148,148,148,148,148,148,148,148,148,148,148,148,148,148,148,40703,32341,17943,35387,148,28512,42027,30280,
26,148,148,148,148,148,148,148,148,148,148,148,8494,148,148,148,148,148,148,8494,148,148,2439,148,148,148,148,148,148,148,148,148,148,148,148,148,148,148,148,148,148,148,148,148,148,148,148,148,148,148,148,148,148,148,148,148,148,148,148,148,8494,1229,148,148,148,148,148,148,148,148,148,148,148,12594,7553,29760,148,23889,28728,49902,1407,
27,148,148,148,148,148,148,148,148,148,148,148,148,148,148,148,148,148,148,148,148,148,148,148,148,148,148,148,148,148,148,148,148,148,148,148,148,148,148,148,148,148,148,148,148,148,148,148,148,148,148,148,148,148,148,148,148,148,148,148,148,148,148,148,148,148,148,148,148,148,148,148,148,148,38390,148,55955,35617,50037,13151,37840,
28,148,148,148,148,148,148,148,148,148,148,148,148,148,148,148,148,148,148,148,148,148,148,148,148,148,148,9137,148,148,148,148,148,148,148,148,148,148,148,148,148,148,148,148,148,148,148,148,148,148,148,15083,148,148,148,148,148,148,148,148,148,148,148,148,148,148,148,148,148,148,148,148,148,12860,17055,478,617,25915,3301,19537,27500,
29,148,148,148,148,148,148,148,148,148,148,148,148,478,148,148,148,148,148,148,148,148,148,148,148,148,148,148,148,148,148,148,148,148,148,148,148,148,148,148,148,148,148,148,148,148,148,148,148,148,148,148,148,148,148,148,148,148,148,148,148,148,148,148,148,148,148,148,148,148,148,22533,148,148,33493,33656,28907,12563,27898,10787,45444,
30,148,148,148,148,148,148,148,148,148,148,148,148,148,148,148,148,148,148,148,148,148,148,148,148,148,148,148,148,148,148,148,148,148,148,148,148,148,148,148,148,148,148,148,148,148,148,148,148,148,148,148,148,148,148,148,148,5128,148,148,148,148,148,148,148,148,148,148,148,148,148,148,148,7895,18593,37380,5527,12687,52111,22059,12253,
31,148,148,148,148,148,148,148,148,148,148,148,148,148,148,148,148,148,148,148,148,148,148,148,148,148,148,148,148,148,148,148,148,148,148,148,148,148,148,148,148,148,148,148,148,148,148,148,148,148,148,148,148,148,148,148,148,148,148,148,148,148,148,148,148,148,148,148,148,148,148,148,148,14736,15118,24489,33587,148,23254,46036,148,
32,148,148,148,148,148,148,148,148,148,148,148,148,148,148,148,148,148,148,148,148,148,148,148,148,16904,148,148,148,148,148,148,148,148,148,148,148,148,148,148,148,148,6515,148,148,148,148,148,148,148,148,148,148,148,148,148,148,148,148,148,148,148,148,148,148,148,148,148,148,148,148,148,148,11382,45671,40760,23240,3226,48598,43862,33460,
33,148,148,148,148,148,148,148,148,148,9589,148,148,148,148,148,148,148,148,148,148,148,148,148,148,148,148,148,148,15339,148,148,148,148,148,148,148,148,148,148,148,148,148,148,148,148,148,148,148,148,15339,148,148,148,148,148,148,148,148,148,148,148,148,148,148,148,148,148,148,148,148,148,148,3974,148,148,35766,36451,6352,19626,148,
34,148,148,148,148,148,148,148,148,148,148,148,148,148,148,148,148,148,148,148,148,148,148,148,148,148,148,148,148,148,148,148,148,148,148,148,148,148,148,148,148,148,148,148,148,148,148,148,148,148,148,148,148,148,148,148,148,148,148,148,148,148,148,148,148,148,148,148,148,148,148,148,148,30514,31430,35390,4825,6838,10307,8835,148,
35,148,148,148,148,148,148,148,148,148,148,148,148,148,148,148,148,148,148,148,148,148,148,148,148,148,148,148,148,148,148,148,148,148,148,148,148,148,148,148,148,148,148,148,148,148,148,148,148,148,148,148,148,148,148,148,148,148,148,148,148,148,148,148,148,148,148,148,148,148,148,148,148,23835,21988,11306,28379,47079,28337,16987,46470,
36,148,148,148,148,148,148,148,148,148,148,148,148,148,148,148,148,148,148,148,148,148,148,4598,148,148,148,4598,148,148,148,148,148,148,148,148,148,148,148,148,148,148,148,148,148,148,148,148,148,148,148,148,148,148,148,148,148,148,148,148,148,148,148,148,148,148,148,148,148,148,148,148,148,26747,39440,12130,148,18411,3247,148,33051,
37,148,148,148,148,148,148,148,148,148,148,148,148,148,148,148,148,148,148,148,148,148,148,148,148,148,148,148,148,148,148,148,148,148,148,148,148,148,148,148,148,148,148,148,148,148,148,148,148,148,148,148,148,148,148,148,148,148,148,148,148,148,148,148,148,148,148,148,148,148,148,148,148,18912,15292,19487,148,17420,19143,148,37259,
38,148,148,148,148,148,148,148,148,148,148,148,148,148,148,148,148,148,148,148,148,148,148,148,148,148,148,148,148,148,148,148,148,148,148,148,148,148,148,148,148,148,148,148,148,148,148,148,148,148,148,148,148,148,148,148,148,148,148,148,148,148,148,148,148,148,148,148,148,148,148,148,148,39430,23015,3462,41500,36609,27588,9076,21441,
39,148,148,148,148,148,148,148,148,148,148,148,148,148,148,148,148,148,148,148,148,148,148,148,148,148,148,148,148,148,148,148,148,148,148,148,148,148,148,148,148,148,148,148,148,148,148,148,148,148,148,148,148,148,148,148,148,148,148,148,148,148,148,148,148,148,148,878,148,148,148,148,148,34248,5361,29563,7812,4513,8679,34882,30539,
40,148,148,148,148,148,148,148,148,148,148,148,148,148,148,148,148,148,7942,148,148,148,148,148,148,148,7942,148,148,148,148,148,148,148,7447,148,148,148,4591,148,148,148,148,7447,148,148,148,148,4591,148,148,148,148,148,148,148,148,148,148,148,1445,148,148,148,148,148,1445,148,148,148,148,148,14554,30211,21350,24185,52516,5851,2105,148,10481,
41,148,148,148,148,148,148,148,148,148,148,148,148,4045,148,148,148,148,148,148,148,148,148,3758,148,148,148,148,148,148,148,148,148,148,148,148,148,148,148,148,148,148,148,148,148,148,148,148,148,148,148,148,148,148,148,148,148,148,148,148,148,148,148,148,148,148,5769,148,148,148,5769,148,148,7374,33839,17482,26956,5537,18003,14503,24332,
42,148,148,148,148,148,148,148,148,148,148,148,148,148,148,148,148,148,148,148,148,148,148,148,148,148,148,148,148,148,148,148,148,148,148,148,148,148,148,148,148,1778,148,148,148,148,148,148,148,148,148,148,148,148,148,148,148,148,148,148,148,148,148,148,148,148,148,148,148,148,148,148,148,148,15113,3181,30336,148,148,26330,3886,
43,148,148,148,148,148,148,148,148,148,148,148,148,148,148,148,148,148,148,148,148,148,148,148,148,148,148,148,148,148,148,148,148,148,148,148,148,148,148,148,148,148,148,148,148,148,148,148,148,148,148,148,148,148,148,148,148,148,148,148,148,148,148,148,148,148,148,148,148,148,148,148,148,148,6906,25704,14745,148,148,22913,29500,
44,148,148,148,148,148,148,148,148,148,148,148,148,148,148,148,148,148,148,148,664,148,148,148,148,148,148,148,148,148,148,148,148,148,148,148,148,148,148,148,148,148,148,148,148,148,148,148,148,148,148,148,148,148,664,148,148,148,148,148,148,148,148,148,148,148,148,148,148,148,148,148,148,24109,5596,12489,14271,16120,46197,14311,3485,
45,148,148,148,148,148,148,148,148,148,148,148,148,148,148,148,148,148,148,148,148,148,148,148,148,148,148,148,148,148,148,148,148,148,148,148,148,148,148,148,148,148,148,148,148,148,148,148,148,148,148,148,148,148,148,148,148,148,148,148,148,148,148,148,148,148,148,148,148,148,148,148,148,148,44948,9930,55439,31789,1055,15394,18824,
46,148,148,148,148,148,148,148,148,148,148,148,5683,148,148,148,148,148,148,11840,148,148,148,148,16695,148,148,148,148,148,148,148,148,148,148,148,148,148,148,148,148,148,148,148,148,148,148,148,148,148,148,148,148,148,148,20891,148,148,148,148,148,148,148,148,148,148,148,148,148,148,148,148,148,18908,14852,148,3860,5991,148,33035,16758,
47,148,148,148,148,148,148,148,148,148,148,148,148,148,148,148,148,148,5220,148,148,148,148,148,148,148,148,148,148,148,148,148,148,148,148,148,148,148,148,1131,148,148,148,148,148,148,1131,148,148,148,148,148,148,148,148,148,148,148,148,148,148,148,148,148,148,148,148,148,148,5683,148,148,148,148,34736,148,21214,148,148,7083,14197,
48,148,148,148,148,148,148,148,148,148,148,148,148,148,148,148,148,148,148,148,148,148,148,148,148,148,148,148,148,148,148,148,148,148,148,148,148,148,148,148,1131,148,148,148,148,148,148,148,148,148,148,148,148,148,148,148,148,148,148,148,148,148,148,148,148,148,148,148,148,148,148,148,148,148,148,51531,148,148,5549,5300,31341,
49,148,148,148,148,148,148,148,148,148,148,148,148,148,148,148,148,148,148,148,148,148,148,148,148,148,148,148,148,148,148,148,148,148,148,148,148,148,148,148,148,148,148,148,148,148,148,148,148,148,148,148,148,148,148,148,148,148,148,148,148,148,148,148,148,148,148,148,148,148,148,148,148,14041,148,6923,148,42899,43116,791,47787,
50,148,148,148,148,148,148,148,148,148,148,148,148,148,148,148,148,148,148,148,148,148,148,148,148,148,148,148,148,148,148,148,148,148,148,148,148,16485,148,148,148,148,148,148,6383,148,148,148,148,148,148,148,148,148,148,148,148,148,148,148,148,148,148,148,3110,148,148,148,148,148,148,148,148,12939,41889,8025,40406,148,35431,148,27521,
51,148,148,148,148,148,148,148,148,148,148,148,148,148,148,148,148,148,148,148,148,148,148,148,148,148,148,148,148,148,148,148,148,148,148,148,148,148,148,148,148,148,148,148,148,148,148,148,148,148,148,148,148,148,148,148,148,148,148,148,148,148,148,148,148,148,148,148,148,148,148,148,148,53266,34820,19081,14242,148,148,7786,30317,
52,148,148,148,148,148,148,148,148,148,148,148,148,148,148,148,148,148,148,148,148,148,148,148,148,148,148,148,148,148,148,148,148,148,148,148,148,148,148,148,148,148,148,148,148,148,148,148,148,148,148,148,148,148,148,148,148,148,148,148,148,148,148,148,148,148,148,148,148,148,148,148,148,176,27707,148,26505,51659,31943,50318,148,
53,148,148,148,148,148,148,148,148,148,148,148,148,148,148,148,148,148,148,148,148,148,148,148,148,148,148,148,148,148,9433,148,148,148,148,148,148,148,148,148,148,148,148,148,148,148,148,148,148,148,148,148,148,148,148,148,148,148,148,148,148,148,148,148,148,148,148,148,148,148,148,148,148,47884,43737,28314,12676,148,1803,33765,148,
54,148,148,148,148,148,148,148,148,148,148,148,148,148,148,148,148,148,148,148,148,148,148,148,148,148,148,148,148,148,148,148,148,148,148,148,148,148,148,148,148,148,148,148,148,148,148,148,148,148,148,148,148,148,148,148,148,148,148,148,148,7102,148,148,148,148,148,148,148,148,148,148,148,24126,148,31793,16654,36640,27967,20282,8106,
55,148,148,148,148,148,148,148,148,148,148,2034,148,148,148,148,148,148,2034,148,148,148,148,2034,7519,148,148,148,148,148,148,148,148,148,148,148,148,148,148,148,148,148,148,148,148,148,148,148,148,148,148,148,148,148,148,148,148,148,148,148,148,148,148,148,148,148,148,2034,148,148,148,148,148,10524,44880,56603,18189,42019,21173,28921,7696,
56,148,148,148,148,148,148,148,148,148,148,148,148,148,148,148,148,148,148,148,148,148,148,148,148,148,148,148,148,148,148,148,148,148,148,148,24762,148,148,148,148,148,148,11096,148,148,148,148,148,148,148,148,148,148,148,148,148,148,148,148,148,148,148,148,148,7993,148,148,148,148,148,148,148,38848,49249,38438,11325,19350,31570,1490,341,
57,148,148,148,148,148,148,148,148,148,148,148,148,148,148,148,148,148,148,148,148,148,148,148,148,148,148,148,148,148,148,148,148,148,148,148,148,148,148,148,148,148,148,148,148,148,148,148,148,148,148,148,148,148,148,148,148,148,148,148,148,148,148,148,148,148,148,148,148,148,148,148,148,48964,38239,29655,148,48731,35361,45121,16852,
58,148,148,148,148,148,148,148,148,148,148,148,148,148,148,148,148,148,148,148,148,148,148,148,148,148,148,148,148,148,148,148,148,148,148,148,148,148,148,148,148,148,148,148,148,148,148,148,148,148,148,148,148,148,148,148,148,148,148,148,148,148,148,148,148,148,148,3013,148,148,148,148,148,48027,34846,10676,14641,5322,27299,49694,4850,
59,148,148,148,148,148,148,148,148,374,148,148,148,148,148,2282,148,148,148,148,148,148,148,148,148,148,148,148,148,148,148,148,148,148,148,148,148,148,148,148,8660,148,148,148,148,148,148,148,148,148,148,148,148,148,148,148,148,148,4014,148,148,148,8660,148,8660,148,148,148,148,148,148,148,148,51718,25654,10134,5069,12238,33311,34095,148,
60,148,148,148,148,148,148,148,148,148,148,148,148,148,148,148,148,6314,148,148,148,148,148,148,148,148,148,148,148,148,148,148,148,148,148,148,148,148,148,148,5318,148,11002,148,148,148,148,148,148,148,148,148,1261,148,148,148,148,148,148,148,148,148,148,148,148,148,148,148,148,148,148,148,148,10037,13945,148,5091,2925,1748,11920,11641,
61,148,148,148,148,148,148,148,148,148,148,148,148,148,148,148,148,148,148,148,148,148,148,148,148,148,148,148,148,148,148,148,148,148,148,148,148,148,148,148,148,148,148,148,148,148,148,148,148,148,148,148,148,148,148,148,148,148,148,148,148,148,148,148,148,148,148,148,148,148,148,148,148,31638,20150,22639,10722,41017,148,12152,27731,
62,148,148,148,148,148,148,148,148,148,148,148,148,148,148,148,148,148,148,148,148,4688,148,148,148,148,148,148,148,148,148,148,148,148,148,148,148,148,148,148,148,148,148,148,148,148,148,148,148,148,148,148,148,148,148,148,148,148,148,148,148,148,148,148,148,148,148,148,148,148,148,148,148,17472,148,31659,148,2479,35946,148,19072,
63,148,148,148,148,148,148,148,148,148,148,148,148,148,9768,148,148,148,148,148,148,148,148,148,148,148,148,148,148,148,148,148,148,148,148,148,148,148,148,148,148,148,148,148,148,148,148,148,148,148,148,148,148,148,148,148,148,148,148,148,148,148,148,148,148,148,148,148,148,148,148,148,148,49818,52195,148,148,16414,11086,148,7927,
64,148,148,148,148,148,148,148,148,148,148,148,148,148,148,148,148,148,148,148,148,148,148,148,148,148,148,148,148,148,148,148,148,148,148,148,148,148,148,148,148,148,148,148,148,148,148,148,148,148,148,148,148,148,148,148,148,148,148,148,148,148,148,148,148,148,148,148,148,148,148,148,148,148,41901,407,2929,58058,26453,26719,53300,
65,148,148,148,148,148,148,148,148,148,148,148,148,148,148,148,148,148,6000,148,8575,148,148,148,148,148,148,148,148,148,148,148,148,6000,148,148,148,148,148,148,148,148,148,148,148,148,148,148,148,148,148,148,148,148,148,148,148,148,148,148,148,148,148,148,148,148,148,148,148,148,148,148,148,12013,13138,43706,148,35647,29842,22289,148,
66,148,148,148,148,148,148,148,148,148,148,148,148,148,148,148,148,148,148,148,148,148,148,148,148,148,148,148,148,148,148,148,148,148,148,148,148,148,148,148,148,148,148,148,148,148,148,148,148,148,148,148,148,148,148,148,148,148,148,148,148,148,148,148,148,148,148,148,148,148,148,148,148,34856,148,42424,51937,859,24501,148,8982,
67,148,148,148,148,148,148,148,148,148,148,148,148,148,148,148,148,148,148,148,148,148,148,148,148,148,148,148,148,148,148,148,148,148,148,148,148,148,148,148,148,148,148,148,148,148,148,148,148,148,148,148,148,148,148,148,148,148,148,148,148,148,148,148,148,148,148,148,148,148,148,148,148,34583,22669,148,148,44979,43947,10420,148,
68,148,148,148,148,148,148,148,148,148,148,148,148,148,148,148,148,148,148,148,148,148,148,148,148,148,148,148,148,148,148,148,148,148,148,148,148,148,148,148,148,148,148,148,148,148,148,148,148,148,148,148,148,148,148,148,148,148,148,148,148,148,148,148,148,148,148,148,148,148,148,148,148,39587,10737,148,3578,36110,5013,148,8779,
69,148,148,148,148,148,148,148,148,148,148,148,148,148,148,148,11378,148,148,148,148,148,148,148,148,148,148,148,148,148,148,148,148,148,148,148,148,148,148,148,148,148,148,148,148,148,148,148,148,148,148,148,148,148,148,148,148,148,148,148,148,148,11378,148,148,148,148,148,148,148,11378,148,148,148,148,1745,148,148,16823,31921,2912,
70,148,148,148,148,148,148,148,148,148,148,148,148,148,148,148,148,148,148,148,148,148,148,148,148,148,148,148,148,148,148,148,148,148,148,148,148,148,148,148,148,148,148,148,148,148,148,148,148,148,148,148,148,148,148,148,148,148,148,148,148,148,148,148,148,148,148,148,148,148,148,148,148,14611,9410,13819,148,32521,19256,32356,22864,
71,148,148,148,148,148,148,148,148,148,148,148,148,148,148,148,148,148,148,148,148,148,148,148,148,148,148,148,148,148,148,148,148,148,148,148,148,148,148,148,148,148,148,148,148,148,148,148,148,7280,148,148,148,148,148,148,148,148,148,148,148,148,148,148,148,148,148,148,148,148,148,148,148,8033,29711,148,21586,18060,148,10145,38277,
72,148,148,148,148,148,148,148,148,148,148,148,148,148,148,148,148,148,148,148,148,148,148,148,148,148,148,148,148,148,148,148,148,148,148,148,148,148,148,148,148,148,148,148,148,148,148,148,148,148,148,148,148,148,3184,148,148,148,148,148,148,148,3184,148,148,148,148,148,148,148,148,148,148,8481,35546,148,28309,34910,25796,8449,30165,
73,148,148,148,148,148,148,148,148,148,148,148,148,148,148,148,148,148,148,1902,148,148,2953,148,148,148,148,148,148,148,148,148,148,148,148,148,148,148,148,148,148,148,148,148,148,148,148,12991,148,148,148,148,148,148,148,148,148,148,148,148,148,148,148,148,148,148,148,148,148,148,148,148,148,148,12728,19506,148,148,37414,17291,23656,
74,148,148,148,148,148,148,148,148,148,148,148,148,148,148,148,148,148,148,148,148,148,148,148,148,148,148,148,148,148,148,148,276,148,148,148,148,148,148,148,148,148,148,148,3632,3632,11361,148,148,148,148,3632,148,148,148,148,148,148,148,148,148,148,148,148,148,148,148,148,11361,148,148,148,276,148,14451,18139,42246,12109,148,32847,148,
75,148,148,148,148,148,148,148,148,148,148,148,148,148,148,148,148,148,148,148,148,148,148,148,148,148,148,148,148,148,148,148,148,148,148,148,148,148,148,148,148,148,148,148,148,148,148,148,148,148,148,148,148,148,148,148,148,148,148,148,148,148,148,148,148,148,148,148,148,148,148,148,148,148,47625,16256,32546,148,54466,51601,47737,
76,148,148,148,148,148,148,148,148,148,148,148,148,148,148,148,148,148,148,148,148,148,148,148,148,148,148,148,148,148,148,148,148,148,148,148,148,148,148,148,148,148,148,148,148,148,148,148,148,148,148,148,148,148,148,148,148,148,148,148,148,148,15873,148,148,148,148,148,148,148,148,148,148,148,10035,24611,59271,41418,25074,41280,27186,
77,148,148,148,148,148,148,148,148,148,148,148,148,148,148,148,148,148,148,148,148,148,148,148,148,148,148,148,148,148,148,148,148,148,148,148,148,148,148,148,148,148,148,148,148,148,148,148,148,148,148,148,148,148,148,7757,148,148,148,148,148,148,148,148,148,148,148,148,148,148,148,148,148,39728,5144,44074,148,148,49212,148,18470,
78,148,148,148,148,148,148,148,148,148,148,148,148,148,148,148,148,148,148,148,148,148,148,148,148,148,148,148,148,148,148,148,148,148,148,148,148,148,148,148,148,148,148,148,148,148,148,148,148,148,148,148,148,148,148,148,148,148,148,148,148,148,148,148,148,148,148,148,148,148,148,148,148,31159,26643,5902,805,2151,33127,148,10934,
79,148,148,148,148,148,148,148,148,148,148,148,148,148,148,148,148,148,148,148,148,148,148,148,148,148,148,148,148,148,148,148,148,148,148,148,148,148,148,148,148,148,11274,148,148,148,148,148,148,148,148,148,148,148,148,148,148,148,148,148,148,148,148,148,148,148,148,148,148,148,148,148,148,148,148,33596,15031,148,148,28954,24805,
80,148,148,148,148,148,148,148,148,148,148,148,148,148,148,148,148,148,148,148,148,148,148,148,148,148,148,148,148,148,148,148,148,148,148,148,148,148,148,148,148,148,148,148,148,148,148,148,148,148,148,148,148,4541,148,148,148,148,148,148,148,148,148,148,148,148,148,148,148,148,148,148,148,18941,39992,11783,15293,42767,13093,52817,22799,
81,148,148,148,148,148,148,148,148,148,148,148,148,148,148,148,148,148,148,148,148,148,148,148,148,148,148,148,148,148,148,148,148,148,148,148,148,148,148,148,148,148,148,148,148,148,148,148,148,148,148,148,148,148,148,148,148,148,148,148,148,148,148,148,148,148,148,148,148,148,148,148,148,24102,29413,2095,41485,39228,3663,21441,37266,
82,148,148,148,148,148,148,148,148,148,148,148,148,148,148,148,8679,148,148,148,18161,148,148,148,148,148,148,148,148,148,148,148,148,148,148,148,148,148,148,148,148,8679,148,148,8679,148,148,8679,148,148,148,148,148,148,148,148,148,148,148,148,148,148,148,148,148,148,148,148,148,148,148,148,148,148,24173,1540,3813,148,24066,21193,6014,
83,148,148,148,148,148,148,148,148,148,148,148,148,148,148,148,148,148,148,148,148,148,148,148,10269,148,148,148,148,148,148,148,148,148,148,148,148,148,148,148,148,148,148,148,148,148,148,148,148,148,148,148,148,148,148,148,148,148,148,148,148,148,148,148,148,148,148,148,148,148,148,148,148,39181,28095,11801,10349,318,148,21045,41324,
84,148,148,148,148,148,148,148,148,148,148,148,148,148,148,148,148,148,148,148,148,148,148,148,148,148,148,148,148,148,148,12640,148,148,148,148,148,148,148,148,148,148,148,148,148,148,148,148,148,148,148,148,148,148,12640,148,2295,148,2295,148,148,148,148,148,148,148,148,148,148,148,148,148,148,26484,11568,46213,5254,24913,56854,52357,10047,
85,148,148,148,148,148,148,148,148,148,148,148,148,148,148,148,148,148,148,148,148,148,148,148,148,148,148,148,148,148,148,148,148,148,18032,148,148,148,148,148,148,148,148,148,90,148,148,148,148,148,148,148,148,148,148,148,148,148,148,148,148,148,148,148,148,148,148,148,148,148,148,148,148,24966,29445,9773,22953,148,1568,37512,38138,
86,90,148,148,148,148,148,148,148,148,148,148,148,148,148,148,148,148,148,148,148,148,148,148,90,148,148,148,148,148,148,148,148,90,148,148,148,148,148,148,148,148,148,148,148,148,148,148,148,148,148,148,148,148,148,148,148,90,148,90,148,148,148,148,148,90,148,148,148,148,148,148,90,148,29537,19151,27154,52469,11671,52283,90,
87,90,90,90,90,90,90,90,90,90,148,148,148,148,148,148,148,148,148,148,148,148,148,90,90,148,90,148,148,148,148,148,148,90,148,148,148,148,148,90,148,148,148,148,148,148,148,148,148,90,90,148,90,148,148,148,90,148,148,148,148,90,148,148,148,148,148,148,90,148,148,90,90,25828,13182,148,57302,49957,8762,2571,90,
88,90,90,90,90,90,90,90,90,90,90,90,90,90,90,90,90,90,90,90,90,90,90,90,90,148,90,148,90,148,90,148,90,90,148,148,90,148,148,90,148,148,148,148,148,148,90,148,90,90,148,148,148,90,90,148,90,148,14573,148,148,90,90,148,90,148,90,90,90,148,90,14573,90,2674,22948,90,32418,148,43910,17245,13954,
89,90,90,90,90,90,90,90,90,90,90,90,90,90,90,90,90,90,90,90,90,148,148,90,90,90,90,90,90,90,90,90,90,90,90,90,90,90,90,90,90,90,90,90,90,90,90,90,90,90,90,90,90,90,90,148,148,90,90,148,90,90,90,2674,90,90,148,90,90,90,148,90,90,38325,30500,13008,6623,90,43958,33457,42135,
90,90,90,90,90,90,90,90,90,90,90,90,90,90,90,90,90,90,90,90,90,90,90,90,90,90,90,90,90,90,90,90,90,90,90,90,90,90,90,90,90,90,90,90,90,90,90,90,90,90,90,90,90,90,90,90,90,90,90,90,90,90,90,90,90,90,90,90,90,90,90,5794,90,24210,23308,49950,43459,46872,36660,12942,21344,
91,90,90,90,90,90,90,90,90,90,90,12980,90,90,90,90,90,90,12519,12519,90,90,90,4527,90,90,90,10109,90,90,90,4527,90,90,90,90,90,90,90,90,90,90,12519,90,90,90,90,90,90,90,90,90,90,90,90,90,90,90,90,4527,90,90,90,90,90,90,90,90,90,90,90,679,12980,18549,36086,7826,90,39489,15939,19275,12570,
92,90,90,90,90,90,90,90,90,90,90,90,90,90,90,90,90,90,90,90,90,90,90,90,90,90,90,90,90,90,90,90,90,90,90,90,90,90,90,90,90,90,90,90,90,90,90,90,90,90,90,90,90,90,90,90,90,90,90,90,90,90,90,90,90,90,90,90,90,90,90,90,90,31740,6576,15949,17347,7221,90,47056,90,
93,90,90,90,90,90,90,90,90,90,90,90,90,90,90,90,90,90,90,90,90,90,90,90,90,90,90,90,90,90,90,90,90,90,90,90,90,90,90,90,90,90,90,90,90,90,90,90,90,90,90,90,90,90,90,90,90,90,90,90,90,90,90,90,90,90,90,90,90,90,90,90,90,37621,22063,90,4620,34765,15616,10582,90,
94,90,90,90,90,90,90,90,90,90,90,90,90,90,90,90,90,90,90,90,90,90,90,90,90,90,90,90,90,90,90,90,90,90,90,90,90,90,90,90,90,90,90,90,90,90,90,90,90,90,90,90,90,7450,90,90,90,90,90,90,90,90,90,90,90,90,90,90,90,90,90,90,90,32290,90,1170,13070,90,44011,90,43282,
95,90,90,90,90,90,90,90,90,90,90,90,90,90,90,90,90,90,90,2894,90,90,90,90,90,90,90,90,90,90,90,90,90,90,90,90,90,90,90,90,90,90,90,90,90,90,90,90,90,90,90,90,90,90,90,90,90,90,2894,90,90,90,90,90,90,90,90,90,90,90,90,90,90,49461,51592,35188,90,21403,10420,45135,90,
96,90,90,90,90,90,90,90,90,90,90,90,90,90,90,90,90,90,90,90,90,90,90,90,90,90,90,90,90,90,90,90,90,90,90,90,90,90,90,90,90,90,90,90,90,90,90,90,90,90,90,90,90,90,90,90,90,90,90,90,90,90,90,90,90,90,90,90,90,90,90,90,90,28512,39732,44457,28616,187,90,90,90,
97,90,90,90,90,90,90,90,90,90,90,90,90,90,90,90,90,1096,90,90,90,90,90,90,90,90,90,90,90,90,90,90,90,90,90,90,90,90,90,90,90,90,90,90,90,90,90,90,90,90,90,90,90,90,90,90,90,90,90,90,90,90,90,90,90,90,90,90,90,90,90,90,90,90,90,90,11268,90,90,27576,16485,
98,90,90,90,90,90,90,90,90,90,90,90,90,90,90,90,90,90,90,90,90,90,90,90,90,90,90,90,90,90,90,90,90,90,90,90,90,90,90,90,90,90,90,90,90,90,90,90,90,90,90,90,90,90,90,90,90,90,90,90,90,90,90,90,90,90,90,90,90,90,90,90,90,46153,2982,35122,21227,8674,11895,90,43339,
99,90,90,90,90,90,90,90,90,90,90,90,90,90,90,90,90,90,90,90,15809,90,90,90,9493,90,90,90,90,90,90,90,90,90,90,90,90,15809,90,90,90,90,90,15027,90,90,90,90,90,90,90,90,15809,90,90,90,90,90,90,90,90,90,90,90,90,90,90,90,90,90,90,90,90,90,90,44202,2089,16458,28497,90,34808,
100,90,90,90,90,90,90,90,90,90,90,90,90,90,90,90,90,90,90,90,90,90,90,90,90,90,90,90,90,90,90,90,90,90,90,90,90,90,90,90,90,90,90,90,90,90,90,90,90,90,90,90,90,90,90,90,90,90,90,90,90,90,90,90,90,90,90,90,90,7160,90,90,90,33625,44103,24540,90,14654,90,90,17052,
